
Gurobi 12.0.3 (armlinux64) logging started Thu Dec 11 14:41:54 2025

Set parameter LogFile to value "output/2025-12-11_14-41-54/BinPackLowerBound.log"

Gurobi 12.0.3 (armlinux64) logging started Thu Dec 11 14:41:59 2025

Set parameter LogFile to value "output/2025-12-11_14-41-54/BinPackLowerBound.log"
